26 26
22
3 3 23 23
3 4 20 22
3 5 17 21
3 6 13 15
3 7 0 19
3 8 20 14
3 9 7 17
3 10 10 16
3 11 23 12
3 12 23 0
3 14 20 0
3 15 13 0
3 16 10 0
3 17 7 0
3 19 0 0
4 3 16 0
4 4 3 22
4 5 13 21
4 7 16 14
4 8 3 14
4 11 16 3
4 14 3 0
